100
128
36
27
11
22
42
62
18
20
39
2
10
38
6
50
42
33
59
53
26
8
20
15
38
42
36
35
21
12
34
34
2
20
42
33
38
48
33
26
54
25
20
29
14
42
14
30
43
28
29
21
16
43
18
18
17
45
22
14
13
23
47
21
30
18
44
35
16
30
15
17
5
64
30
16
24
44
39
24
59
53
6
38
44
54
4
31
26
28
2
39
27
40
53
54
35
41
34
31
64
63